c User generated cnf file
p cnf 7 35
6 3 -7 0 
4 7 -6 0 
3 -5 6 0 
4 5 -4 0 
1 -7 2 0 
7 4 -1 0 
7 3 -7 0 
4 5 -6 0 
3 -3 4 0 
6 -1 4 0 
1 3 -5 0 
5 -2 4 0 
5 3 -3 0 
5 -2 5 0 
6 -2 4 0 
1 -4 4 0 
5 -1 4 0 
3 2 -3 0 
4 -5 1 0 
6 -3 1 0 
5 -1 5 0 
1 1 -6 0 
1 6 -5 0 
7 3 -2 0 
1 1 -1 0 
6 7 -2 0 
3 1 -7 0 
6 -1 3 0 
6 6 -7 0 
5 2 -3 0 
5 -5 5 0 
6 6 -4 0 
5 4 -4 0 
2 5 -2 0 
6 -2 7 0 
